db/data/322802909916639123811240728335256525277.z3.out
sat
-------------------
1950.913223506
